cmake-build-debug/m_teste_saida.lp
\Problem name: 

Minimize
obj: V0 + V1 + V2 + V3 + V4 + V5 + V6 + V7 + V8 + V9
Subject To
cons0:  V0 + V3 <= 1
cons1:  V2 + V3 <= 1
cons2:  V3 + V4 <= 1
cons3:  V4 + V8 <= 1
cons4:  V5 + V6 <= 1
cons5:  V5 + V8 <= 1
cons6:  V6 + V7 <= 1
cons7:  V7 + V8 <= 1
cons8:  V0 + V1 + V2 <= 1
cons9:  V1 + V2 + V4 <= 1
cons10:  V1 + V5 + V9 <= 1
Bounds
 0 <= V0 <= 1
 0 <= V1 <= 1
 0 <= V2 <= 1
 0 <= V3 <= 1
 0 <= V4 <= 1
 0 <= V5 <= 1
 0 <= V6 <= 1
 0 <= V7 <= 1
 0 <= V8 <= 1
 0 <= V9 <= 1
Integers
V0 V1 V2 V3 V4 V5 V6 V7 V8 V9 
End
