cmake-build-debug/m_teste_saida.txt
4
3 0 2 3
2 4 8 
3 1 5 9 
2 6 7
